objective value:                                10638
t_x_0                                               1 	(obj:60)
t_x_4                                               1 	(obj:0)
t_x_5                                               1 	(obj:45)
t_x_6                                               1 	(obj:23)
t_x_15                                              1 	(obj:27)
t_x_22                                              1 	(obj:20)
t_x_24                                              1 	(obj:19)
t_x_29                                              1 	(obj:19)
t_x_34                                              1 	(obj:28)
t_x_35                                              1 	(obj:11)
t_x_39                                              1 	(obj:0)
t_x_40                                              1 	(obj:2)
t_x_43                                              1 	(obj:12)
t_x_45                                              1 	(obj:7)
t_x_50                                              1 	(obj:41)
t_x_63                                              1 	(obj:7)
t_x_65                                              1 	(obj:9)
t_x_68                                              1 	(obj:45)
t_x_75                                              1 	(obj:26)
t_x_78                                              1 	(obj:40)
t_x_82                                              1 	(obj:14)
t_x_84                                              1 	(obj:32)
t_x_87                                              1 	(obj:11)
t_x_90                                              1 	(obj:31)
t_x_93                                              1 	(obj:3)
t_x_97                                              1 	(obj:12)
t_x_100                                             1 	(obj:42)
t_x_106                                             1 	(obj:3)
t_x_107                                             1 	(obj:20)
t_x_108                                             1 	(obj:19)
t_x_112                                             1 	(obj:13)
t_x_114                                             1 	(obj:28)
t_x_115                                             1 	(obj:4)
t_x_118                                             1 	(obj:67)
t_x_121                                             1 	(obj:30)
t_x_126                                             1 	(obj:24)
t_x_129                                             1 	(obj:22)
t_x_133                                             1 	(obj:24)
t_x_134                                             1 	(obj:1)
t_x_135                                             1 	(obj:20)
t_x_136                                             1 	(obj:3)
t_x_139                                             1 	(obj:8)
t_x_142                                             1 	(obj:23)
t_x_145                                             1 	(obj:22)
t_x_149                                             1 	(obj:48)
t_x_150                                             1 	(obj:22)
t_x_155                                             1 	(obj:11)
t_x_161                                             1 	(obj:31)
t_x_163                                             1 	(obj:26)
t_x_166                                             1 	(obj:20)
t_x_185                                             1 	(obj:18)
t_x_186                                             1 	(obj:20)
t_x_191                                             1 	(obj:7)
t_x_195                                             1 	(obj:10)
t_x_196                                             1 	(obj:5)
t_x_197                                             1 	(obj:18)
t_x_204                                             1 	(obj:20)
t_x_213                                             1 	(obj:17)
t_x_214                                             1 	(obj:23)
t_x_215                                             1 	(obj:5)
t_x_216                                             1 	(obj:5)
t_x_220                                             1 	(obj:16)
t_x_221                                             1 	(obj:10)
t_x_222                                             1 	(obj:4)
t_x_226                                             1 	(obj:4)
t_x_229                                             1 	(obj:21)
t_x_237                                             1 	(obj:36)
t_x_241                                             1 	(obj:76)
t_x_249                                             1 	(obj:21)
t_x_250                                             1 	(obj:4)
t_x_253                                             1 	(obj:32)
t_x_257                                             1 	(obj:15)
t_x_259                                             1 	(obj:12)
t_x_271                                             1 	(obj:23)
t_x_272                                             1 	(obj:14)
t_x_289                                             1 	(obj:17)
t_x_290                                             1 	(obj:36)
t_x_293                                             1 	(obj:24)
t_x_294                                             1 	(obj:11)
t_x_295                                             1 	(obj:16)
t_x_296                                             1 	(obj:1)
t_x_303                                             1 	(obj:3)
t_x_309                                             1 	(obj:45)
t_x_319                                             1 	(obj:7)
t_x_327                                             1 	(obj:15)
t_x_333                                             1 	(obj:11)
t_x_338                                             1 	(obj:1)
t_x_341                                             1 	(obj:18)
t_x_350                                             1 	(obj:8)
t_x_354                                             1 	(obj:35)
t_x_358                                             1 	(obj:28)
t_x_365                                             1 	(obj:9)
t_x_366                                             1 	(obj:48)
t_x_374                                             1 	(obj:19)
t_x_375                                             1 	(obj:6)
t_x_380                                             1 	(obj:7)
t_x_381                                             1 	(obj:1)
t_x_387                                             1 	(obj:40)
t_x_396                                             1 	(obj:4)
t_x_398                                             1 	(obj:8)
t_x_399                                             1 	(obj:2)
t_x_401                                             1 	(obj:4)
t_x_402                                             1 	(obj:10)
t_x_403                                             1 	(obj:57)
t_x_405                                             1 	(obj:0)
t_x_408                                             1 	(obj:13)
t_x_409                                             1 	(obj:12)
t_x_411                                             1 	(obj:19)
t_x_417                                             1 	(obj:0)
t_x_418                                             1 	(obj:12)
t_x_421                                             1 	(obj:7)
t_x_427                                             1 	(obj:50)
t_x_428                                             1 	(obj:33)
t_x_430                                             1 	(obj:23)
t_x_433                                             1 	(obj:31)
t_x_434                                             1 	(obj:13)
t_x_436                                             1 	(obj:19)
t_x_437                                             1 	(obj:10)
t_x_445                                             1 	(obj:12)
t_x_446                                             1 	(obj:44)
t_x_448                                             1 	(obj:3)
t_x_451                                             1 	(obj:22)
t_x_454                                             1 	(obj:22)
t_x_455                                             1 	(obj:16)
t_x_456                                             1 	(obj:51)
t_x_458                                             1 	(obj:3)
t_x_468                                             1 	(obj:4)
t_x_471                                             1 	(obj:52)
t_x_475                                             1 	(obj:23)
t_x_483                                             1 	(obj:38)
t_x_484                                             1 	(obj:20)
t_x_487                                             1 	(obj:24)
t_x_496                                             1 	(obj:17)
t_x_497                                             1 	(obj:24)
t_x_501                                             1 	(obj:31)
t_x_507                                             1 	(obj:4)
t_x_508                                             1 	(obj:30)
t_x_514                                             1 	(obj:30)
t_x_515                                             1 	(obj:4)
t_x_516                                             1 	(obj:3)
t_x_518                                             1 	(obj:11)
t_x_519                                             1 	(obj:12)
t_x_521                                             1 	(obj:21)
t_x_532                                             1 	(obj:35)
t_x_534                                             1 	(obj:32)
t_x_536                                             1 	(obj:51)
t_x_540                                             1 	(obj:10)
t_x_545                                             1 	(obj:0)
t_x_547                                             1 	(obj:8)
t_x_551                                             1 	(obj:2)
t_x_558                                             1 	(obj:32)
t_x_560                                             1 	(obj:18)
t_x_561                                             1 	(obj:3)
t_x_562                                             1 	(obj:35)
t_x_569                                             1 	(obj:0)
t_x_579                                             1 	(obj:43)
t_x_581                                             1 	(obj:22)
t_x_582                                             1 	(obj:27)
t_x_584                                             1 	(obj:29)
t_x_585                                             1 	(obj:35)
t_x_586                                             1 	(obj:1)
t_x_590                                             1 	(obj:24)
t_x_603                                             1 	(obj:3)
t_x_604                                             1 	(obj:12)
t_x_605                                             1 	(obj:28)
t_x_607                                             1 	(obj:12)
t_x_608                                             1 	(obj:1)
t_x_610                                             1 	(obj:4)
t_x_613                                             1 	(obj:4)
t_x_618                                             1 	(obj:6)
t_x_619                                             1 	(obj:16)
t_x_622                                             1 	(obj:0)
t_x_628                                             1 	(obj:36)
t_x_630                                             1 	(obj:21)
t_x_634                                             1 	(obj:12)
t_x_641                                             1 	(obj:18)
t_x_642                                             1 	(obj:10)
t_x_650                                             1 	(obj:6)
t_x_651                                             1 	(obj:6)
t_x_654                                             1 	(obj:43)
t_x_656                                             1 	(obj:10)
t_x_659                                             1 	(obj:3)
t_x_661                                             1 	(obj:22)
t_x_664                                             1 	(obj:28)
t_x_665                                             1 	(obj:6)
t_x_667                                             1 	(obj:17)
t_x_669                                             1 	(obj:19)
t_x_670                                             1 	(obj:10)
t_x_672                                             1 	(obj:27)
t_x_673                                             1 	(obj:29)
t_x_677                                             1 	(obj:29)
t_x_679                                             1 	(obj:1)
t_x_680                                             1 	(obj:27)
t_x_682                                             1 	(obj:49)
t_x_683                                             1 	(obj:21)
t_x_685                                             1 	(obj:45)
t_x_687                                             1 	(obj:11)
t_x_691                                             1 	(obj:44)
t_x_705                                             1 	(obj:12)
t_x_707                                             1 	(obj:29)
t_x_709                                             1 	(obj:5)
t_x_712                                             1 	(obj:44)
t_x_717                                             1 	(obj:12)
t_x_721                                             1 	(obj:60)
t_x_723                                             1 	(obj:23)
t_x_726                                             1 	(obj:27)
t_x_732                                             1 	(obj:38)
t_x_733                                             1 	(obj:19)
t_x_739                                             1 	(obj:1)
t_x_745                                             1 	(obj:23)
t_x_746                                             1 	(obj:12)
t_x_749                                             1 	(obj:33)
t_x_759                                             1 	(obj:19)
t_x_760                                             1 	(obj:40)
t_x_762                                             1 	(obj:17)
t_x_765                                             1 	(obj:22)
t_x_766                                             1 	(obj:18)
t_x_768                                             1 	(obj:13)
t_x_770                                             1 	(obj:35)
t_x_774                                             1 	(obj:14)
t_x_776                                             1 	(obj:8)
t_x_777                                             1 	(obj:26)
t_x_778                                             1 	(obj:1)
t_x_782                                             1 	(obj:45)
t_x_786                                             1 	(obj:15)
t_x_790                                             1 	(obj:15)
t_x_800                                             1 	(obj:38)
t_x_804                                             1 	(obj:18)
t_x_806                                             1 	(obj:15)
t_x_807                                             1 	(obj:42)
t_x_810                                             1 	(obj:34)
t_x_819                                             1 	(obj:37)
t_x_824                                             1 	(obj:15)
t_x_827                                             1 	(obj:5)
t_x_828                                             1 	(obj:1)
t_x_829                                             1 	(obj:24)
t_x_835                                             1 	(obj:20)
t_x_836                                             1 	(obj:7)
t_x_843                                             1 	(obj:7)
t_x_844                                             1 	(obj:26)
t_x_845                                             1 	(obj:15)
t_x_846                                             1 	(obj:37)
t_x_847                                             1 	(obj:40)
t_x_848                                             1 	(obj:1)
t_x_855                                             1 	(obj:22)
t_x_856                                             1 	(obj:11)
t_x_865                                             1 	(obj:30)
t_x_869                                             1 	(obj:32)
t_x_872                                             1 	(obj:4)
t_x_873                                             1 	(obj:26)
t_x_878                                             1 	(obj:27)
t_x_880                                             1 	(obj:10)
t_x_885                                             1 	(obj:8)
t_x_895                                             1 	(obj:38)
t_x_898                                             1 	(obj:2)
t_x_901                                             1 	(obj:1)
t_x_902                                             1 	(obj:39)
t_x_905                                             1 	(obj:18)
t_x_910                                             1 	(obj:0)
t_x_911                                             1 	(obj:62)
t_x_914                                             1 	(obj:17)
t_x_918                                             1 	(obj:9)
t_x_920                                             1 	(obj:7)
t_x_921                                             1 	(obj:3)
t_x_924                                             1 	(obj:10)
t_x_925                                             1 	(obj:26)
t_x_929                                             1 	(obj:10)
t_x_932                                             1 	(obj:18)
t_x_936                                             1 	(obj:24)
t_x_942                                             1 	(obj:6)
t_x_945                                             1 	(obj:27)
t_x_952                                             1 	(obj:16)
t_x_958                                             1 	(obj:24)
t_x_959                                             1 	(obj:4)
t_x_961                                             1 	(obj:25)
t_x_965                                             1 	(obj:13)
t_x_967                                             1 	(obj:46)
t_x_968                                             1 	(obj:16)
t_x_969                                             1 	(obj:6)
t_x_970                                             1 	(obj:1)
t_x_972                                             1 	(obj:2)
t_x_973                                             1 	(obj:8)
t_x_974                                             1 	(obj:11)
t_x_976                                             1 	(obj:15)
t_x_977                                             1 	(obj:16)
t_x_984                                             1 	(obj:9)
t_x_989                                             1 	(obj:14)
t_x_996                                             1 	(obj:16)
t_x_999                                             1 	(obj:0)
t_x_1001                                            1 	(obj:16)
t_x_1009                                            1 	(obj:7)
t_x_1010                                            1 	(obj:4)
t_x_1011                                            1 	(obj:7)
t_x_1014                                            1 	(obj:10)
t_x_1015                                            1 	(obj:18)
t_x_1016                                            1 	(obj:32)
t_x_1017                                            1 	(obj:28)
t_x_1028                                            1 	(obj:4)
t_x_1030                                            1 	(obj:26)
t_x_1038                                            1 	(obj:4)
t_x_1040                                            1 	(obj:3)
t_x_1041                                            1 	(obj:4)
t_x_1049                                            1 	(obj:48)
t_x_1050                                            1 	(obj:11)
t_x_1053                                            1 	(obj:26)
t_x_1063                                            1 	(obj:3)
t_x_1066                                            1 	(obj:17)
t_x_1069                                            1 	(obj:3)
t_x_1071                                            1 	(obj:22)
t_x_1076                                            1 	(obj:30)
t_x_1079                                            1 	(obj:10)
t_x_1080                                            1 	(obj:2)
t_x_1083                                            1 	(obj:5)
t_x_1087                                            1 	(obj:7)
t_x_1088                                            1 	(obj:11)
t_x_1090                                            1 	(obj:36)
t_x_1095                                            1 	(obj:29)
t_x_1096                                            1 	(obj:2)
t_x_1104                                            1 	(obj:3)
t_x_1107                                            1 	(obj:1)
t_x_1121                                            1 	(obj:39)
t_x_1123                                            1 	(obj:26)
t_x_1126                                            1 	(obj:5)
t_x_1131                                            1 	(obj:12)
t_x_1143                                            1 	(obj:2)
t_x_1146                                            1 	(obj:47)
t_x_1152                                            1 	(obj:3)
t_x_1154                                            1 	(obj:21)
t_x_1156                                            1 	(obj:17)
t_x_1158                                            1 	(obj:21)
t_x_1162                                            1 	(obj:14)
t_x_1163                                            1 	(obj:11)
t_x_1165                                            1 	(obj:2)
t_x_1166                                            1 	(obj:56)
t_x_1167                                            1 	(obj:17)
t_x_1179                                            1 	(obj:4)
t_x_1181                                            1 	(obj:9)
t_x_1185                                            1 	(obj:24)
t_x_1186                                            1 	(obj:4)
t_x_1187                                            1 	(obj:58)
t_x_1190                                            1 	(obj:23)
t_x_1191                                            1 	(obj:4)
t_x_1196                                            1 	(obj:7)
t_x_1198                                            1 	(obj:28)
t_x_1203                                            1 	(obj:15)
t_x_1205                                            1 	(obj:45)
t_x_1206                                            1 	(obj:13)
t_x_1211                                            1 	(obj:34)
t_x_1214                                            1 	(obj:9)
t_x_1216                                            1 	(obj:35)
t_x_1217                                            1 	(obj:3)
t_x_1223                                            1 	(obj:30)
t_x_1227                                            1 	(obj:41)
t_x_1230                                            1 	(obj:9)
t_x_1232                                            1 	(obj:28)
t_x_1233                                            1 	(obj:34)
t_x_1235                                            1 	(obj:10)
t_x_1236                                            1 	(obj:27)
t_x_1237                                            1 	(obj:18)
t_x_1243                                            1 	(obj:24)
t_x_1248                                            1 	(obj:18)
t_x_1250                                            1 	(obj:27)
t_x_1253                                            1 	(obj:2)
t_x_1257                                            1 	(obj:38)
t_x_1258                                            1 	(obj:35)
t_x_1259                                            1 	(obj:29)
t_x_1261                                            1 	(obj:56)
t_x_1265                                            1 	(obj:15)
t_x_1266                                            1 	(obj:8)
t_x_1276                                            1 	(obj:9)
t_x_1280                                            1 	(obj:39)
t_x_1281                                            1 	(obj:0)
t_x_1287                                            1 	(obj:13)
t_x_1289                                            1 	(obj:29)
t_x_1291                                            1 	(obj:50)
t_x_1292                                            1 	(obj:4)
t_x_1296                                            1 	(obj:18)
t_x_1300                                            1 	(obj:52)
t_x_1309                                            1 	(obj:3)
t_x_1310                                            1 	(obj:5)
t_x_1315                                            1 	(obj:16)
t_x_1316                                            1 	(obj:2)
t_x_1317                                            1 	(obj:17)
t_x_1318                                            1 	(obj:12)
t_x_1322                                            1 	(obj:0)
t_x_1325                                            1 	(obj:5)
t_x_1328                                            1 	(obj:6)
t_x_1332                                            1 	(obj:4)
t_x_1337                                            1 	(obj:22)
t_x_1341                                            1 	(obj:25)
t_x_1345                                            1 	(obj:65)
t_x_1352                                            1 	(obj:3)
t_x_1355                                            1 	(obj:16)
t_x_1359                                            1 	(obj:39)
t_x_1362                                            1 	(obj:7)
t_x_1363                                            1 	(obj:5)
t_x_1365                                            1 	(obj:2)
t_x_1366                                            1 	(obj:16)
t_x_1368                                            1 	(obj:20)
t_x_1370                                            1 	(obj:0)
t_x_1373                                            1 	(obj:29)
t_x_1375                                            1 	(obj:5)
t_x_1385                                            1 	(obj:0)
t_x_1386                                            1 	(obj:3)
t_x_1387                                            1 	(obj:59)
t_x_1388                                            1 	(obj:44)
t_x_1390                                            1 	(obj:1)
t_x_1393                                            1 	(obj:6)
t_x_1399                                            1 	(obj:14)
t_x_1405                                            1 	(obj:11)
t_x_1407                                            1 	(obj:8)
t_x_1418                                            1 	(obj:38)
t_x_1425                                            1 	(obj:24)
t_x_1428                                            1 	(obj:11)
t_x_1429                                            1 	(obj:41)
t_x_1434                                            1 	(obj:9)
t_x_1438                                            1 	(obj:24)
t_x_1446                                            1 	(obj:8)
t_x_1448                                            1 	(obj:24)
t_x_1455                                            1 	(obj:7)
t_x_1461                                            1 	(obj:2)
t_x_1464                                            1 	(obj:23)
t_x_1466                                            1 	(obj:2)
t_x_1467                                            1 	(obj:18)
t_x_1469                                            1 	(obj:19)
t_x_1470                                            1 	(obj:4)
t_x_1473                                            1 	(obj:6)
t_x_1476                                            1 	(obj:3)
t_x_1478                                            1 	(obj:28)
t_x_1479                                            1 	(obj:11)
t_x_1480                                            1 	(obj:9)
t_x_1483                                            1 	(obj:12)
t_x_1486                                            1 	(obj:18)
t_x_1490                                            1 	(obj:25)
t_x_1493                                            1 	(obj:8)
t_x_1494                                            1 	(obj:5)
t_x_1496                                            1 	(obj:14)
t_x_1501                                            1 	(obj:29)
t_x_1508                                            1 	(obj:5)
t_x_1509                                            1 	(obj:5)
t_x_1513                                            1 	(obj:12)
t_x_1514                                            1 	(obj:13)
t_x_1515                                            1 	(obj:12)
t_x_1517                                            1 	(obj:11)
t_x_1519                                            1 	(obj:23)
t_x_1521                                            1 	(obj:2)
t_x_1526                                            1 	(obj:31)
t_x_1529                                            1 	(obj:3)
t_x_1532                                            1 	(obj:22)
t_x_1535                                            1 	(obj:36)
t_x_1537                                            1 	(obj:6)
t_x_1545                                            1 	(obj:16)
t_x_1549                                            1 	(obj:15)
t_x_1550                                            1 	(obj:37)
t_x_1553                                            1 	(obj:10)
t_x_1556                                            1 	(obj:11)
t_x_1559                                            1 	(obj:19)
t_x_1563                                            1 	(obj:6)
t_x_1566                                            1 	(obj:6)
t_x_1568                                            1 	(obj:5)
t_x_1580                                            1 	(obj:7)
t_x_1589                                            1 	(obj:42)
t_x_1590                                            1 	(obj:1)
t_x_1591                                            1 	(obj:29)
t_x_1593                                            1 	(obj:28)
t_x_1596                                            1 	(obj:1)
t_x_1598                                            1 	(obj:8)
t_x_1599                                            1 	(obj:2)
t_x_1602                                            1 	(obj:0)
t_x_1613                                            1 	(obj:29)
t_x_1616                                            1 	(obj:2)
t_x_1620                                            1 	(obj:1)
t_x_1621                                            1 	(obj:25)
t_x_1622                                            1 	(obj:41)
t_x_1627                                            1 	(obj:10)
t_x_1634                                            1 	(obj:48)
t_x_1638                                            1 	(obj:15)
t_x_1639                                            1 	(obj:48)
t_x_1640                                            1 	(obj:15)
t_x_1641                                            1 	(obj:7)
t_x_1643                                            1 	(obj:15)
t_x_1648                                            1 	(obj:21)
t_x_1649                                            1 	(obj:12)
t_x_1663                                            1 	(obj:5)
t_x_1666                                            1 	(obj:49)
t_x_1667                                            1 	(obj:7)
t_x_1668                                            1 	(obj:23)
t_x_1676                                            1 	(obj:0)
t_x_1677                                            1 	(obj:12)
t_x_1680                                            1 	(obj:11)
t_x_1681                                            1 	(obj:1)
t_x_1685                                            1 	(obj:10)
t_x_1689                                            1 	(obj:3)
t_x_1691                                            1 	(obj:53)
t_x_1701                                            1 	(obj:22)
t_x_1704                                            1 	(obj:7)
t_x_1707                                            1 	(obj:11)
t_x_1708                                            1 	(obj:16)
t_x_1715                                            1 	(obj:5)
t_x_1719                                            1 	(obj:16)
t_x_1722                                            1 	(obj:3)
t_x_1723                                            1 	(obj:36)
t_x_1724                                            1 	(obj:12)
t_x_1728                                            1 	(obj:7)
t_x_1730                                            1 	(obj:2)
t_x_1739                                            1 	(obj:57)
t_x_1743                                            1 	(obj:72)
t_x_1747                                            1 	(obj:8)
t_x_1748                                            1 	(obj:1)
t_x_1751                                            1 	(obj:4)
t_x_1753                                            1 	(obj:26)
t_x_1754                                            1 	(obj:10)
t_x_1756                                            1 	(obj:9)
t_x_1759                                            1 	(obj:1)
t_x_1764                                            1 	(obj:18)
t_x_1772                                            1 	(obj:39)
t_x_1773                                            1 	(obj:4)
t_x_1774                                            1 	(obj:16)
t_x_1779                                            1 	(obj:26)
t_x_1781                                            1 	(obj:26)
t_x_1792                                            1 	(obj:29)
t_x_1793                                            1 	(obj:1)
t_x_1794                                            1 	(obj:9)
t_x_1796                                            1 	(obj:8)
t_x_1801                                            1 	(obj:39)
t_x_1802                                            1 	(obj:18)
t_x_1803                                            1 	(obj:43)
t_x_1805                                            1 	(obj:0)
t_x_1814                                            1 	(obj:17)
t_x_1815                                            1 	(obj:24)
t_x_1828                                            1 	(obj:21)
t_x_1836                                            1 	(obj:32)
t_x_1837                                            1 	(obj:13)
t_x_1838                                            1 	(obj:4)
t_x_1844                                            1 	(obj:29)
t_x_1847                                            1 	(obj:0)
t_x_1850                                            1 	(obj:0)
t_x_1853                                            1 	(obj:13)
t_x_1862                                            1 	(obj:38)
t_x_1872                                            1 	(obj:4)
t_x_1873                                            1 	(obj:32)
t_x_1876                                            1 	(obj:18)
t_x_1877                                            1 	(obj:42)
t_x_1878                                            1 	(obj:9)
t_x_1885                                            1 	(obj:2)
t_x_1888                                            1 	(obj:32)
t_x_1890                                            1 	(obj:44)
t_x_1895                                            1 	(obj:27)
t_x_1896                                            1 	(obj:9)
t_x_1908                                            1 	(obj:8)
t_x_1911                                            1 	(obj:31)
t_x_1913                                            1 	(obj:6)
t_x_1914                                            1 	(obj:2)
t_x_1915                                            1 	(obj:51)
t_x_1920                                            1 	(obj:13)
t_x_1923                                            1 	(obj:34)
t_x_1925                                            1 	(obj:6)
t_x_1934                                            1 	(obj:6)
t_x_1941                                            1 	(obj:60)
t_x_1943                                            1 	(obj:39)
t_x_1946                                            1 	(obj:9)
t_x_1948                                            1 	(obj:11)
t_x_1949                                            1 	(obj:32)
t_x_1952                                            1 	(obj:0)
t_x_1953                                            1 	(obj:6)
t_x_1957                                            1 	(obj:30)
t_x_1959                                            1 	(obj:66)
t_x_1963                                            1 	(obj:37)
t_x_1969                                            1 	(obj:25)
t_x_1970                                            1 	(obj:13)
t_x_1973                                            1 	(obj:53)
t_x_1974                                            1 	(obj:9)
t_x_1975                                            1 	(obj:7)
t_x_1976                                            1 	(obj:26)
t_x_1995                                            1 	(obj:6)
t_x_1996                                            1 	(obj:0)
t_x_1997                                            1 	(obj:14)
t_x_1999                                            1 	(obj:3)
